NAME : swiss42-C-5-0-a.1561.tour
COMMENT : Length = 1561
COMMENT : Found by LKH-3 [Keld Helsgaun] Tue Jul 30 13:14:05 2024
TYPE : TOUR
DIMENSION : 42
TOUR_SECTION
1
32
36
37
2
7
6
27
19
13
12
26
11
5
4
3
28
29
33
21
34
35
39
23
40
25
41
22
10
24
42
9
30
31
14
20
15
17
16
38
18
8
-1
EOF
